p cnf 91 79
-1 87 -2 46 51 91 0 
-3 -4 88 -5 91 0 
-6 42 -2 46 51 91 0 
-7 48 54 91 0 
-8 -9 -10 -2 46 51 91 0 
-11 14 91 0 
-12 91 0 
-13 16 26 30 53 63 64 65 67 71 91 0 
-14 11 91 0 
-15 19 52 57 91 0 
-16 13 26 30 53 63 64 65 67 71 91 0 
-17 23 66 91 0 
-18 91 0 
-19 15 52 57 91 0 
-20 25 49 60 -21 91 0 
-22 24 28 29 31 32 33 34 35 36 37 38 39 40 41 43 44 69 70 72 73 74 75 76 77 78 79 80 81 82 83 84 85 86 91 0 
-23 17 66 91 0 
-24 22 28 29 31 32 33 34 35 36 37 38 39 40 41 43 44 69 70 72 73 74 75 76 77 78 79 80 81 82 83 84 85 86 91 0 
-25 20 49 60 -9 91 0 
-26 13 16 30 53 63 64 65 67 71 -2 46 51 -27 91 0 
-28 22 24 29 31 32 33 34 35 36 37 38 39 40 41 43 44 69 70 72 73 74 75 76 77 78 79 80 81 82 83 84 85 86 91 0 
-29 22 24 28 31 32 33 34 35 36 37 38 39 40 41 43 44 69 70 72 73 74 75 76 77 78 79 80 81 82 83 84 85 86 91 0 
-30 13 16 26 53 63 64 65 67 71 91 0 
-31 22 24 28 29 32 33 34 35 36 37 38 39 40 41 43 44 69 70 72 73 74 75 76 77 78 79 80 81 82 83 84 85 86 91 0 
-32 22 24 28 29 31 33 34 35 36 37 38 39 40 41 43 44 69 70 72 73 74 75 76 77 78 79 80 81 82 83 84 85 86 91 0 
-33 22 24 28 29 31 32 34 35 36 37 38 39 40 41 43 44 69 70 72 73 74 75 76 77 78 79 80 81 82 83 84 85 86 91 0 
-34 22 24 28 29 31 32 33 35 36 37 38 39 40 41 43 44 69 70 72 73 74 75 76 77 78 79 80 81 82 83 84 85 86 91 0 
-35 22 24 28 29 31 32 33 34 36 37 38 39 40 41 43 44 69 70 72 73 74 75 76 77 78 79 80 81 82 83 84 85 86 91 0 
-36 22 24 28 29 31 32 33 34 35 37 38 39 40 41 43 44 69 70 72 73 74 75 76 77 78 79 80 81 82 83 84 85 86 91 0 
-37 22 24 28 29 31 32 33 34 35 36 38 39 40 41 43 44 69 70 72 73 74 75 76 77 78 79 80 81 82 83 84 85 86 91 0 
-38 22 24 28 29 31 32 33 34 35 36 37 39 40 41 43 44 69 70 72 73 74 75 76 77 78 79 80 81 82 83 84 85 86 91 0 
-39 22 24 28 29 31 32 33 34 35 36 37 38 40 41 43 44 69 70 72 73 74 75 76 77 78 79 80 81 82 83 84 85 86 91 0 
-40 22 24 28 29 31 32 33 34 35 36 37 38 39 41 43 44 69 70 72 73 74 75 76 77 78 79 80 81 82 83 84 85 86 91 0 
-41 22 24 28 29 31 32 33 34 35 36 37 38 39 40 43 44 69 70 72 73 74 75 76 77 78 79 80 81 82 83 84 85 86 91 0 
-42 6 91 0 
-43 22 24 28 29 31 32 33 34 35 36 37 38 39 40 41 44 69 70 72 73 74 75 76 77 78 79 80 81 82 83 84 85 86 91 0 
-44 22 24 28 29 31 32 33 34 35 36 37 38 39 40 41 43 69 70 72 73 74 75 76 77 78 79 80 81 82 83 84 85 86 91 0 
-45 -46 2 51 91 0 
-47 -48 7 54 91 0 
-49 20 25 60 -50 91 0 
-51 2 46 91 0 
-52 15 19 57 91 0 
-53 13 16 26 30 63 64 65 67 71 91 0 
-54 7 48 91 0 
-55 -51 2 46 91 0 
-56 91 0 
-26 13 16 30 53 63 64 65 67 71 91 0 
-57 15 19 52 91 0 
-58 91 0 
-42 6 -10 91 0 
-59 -60 20 25 49 -61 91 0 
-62 91 0 
-63 13 16 26 30 53 64 65 67 71 91 0 
-64 13 16 26 30 53 63 65 67 71 91 0 
-65 13 16 26 30 53 63 64 67 71 91 0 
-66 17 23 91 0 
-67 13 16 26 30 53 63 64 65 71 91 0 
-11 14 -68 91 0 
-69 22 24 28 29 31 32 33 34 35 36 37 38 39 40 41 43 44 70 72 73 74 75 76 77 78 79 80 81 82 83 84 85 86 91 0 
-70 22 24 28 29 31 32 33 34 35 36 37 38 39 40 41 43 44 69 72 73 74 75 76 77 78 79 80 81 82 83 84 85 86 91 0 
-71 13 16 26 30 53 63 64 65 67 91 0 
-72 22 24 28 29 31 32 33 34 35 36 37 38 39 40 41 43 44 69 70 73 74 75 76 77 78 79 80 81 82 83 84 85 86 91 0 
-73 22 24 28 29 31 32 33 34 35 36 37 38 39 40 41 43 44 69 70 72 74 75 76 77 78 79 80 81 82 83 84 85 86 91 0 
-74 22 24 28 29 31 32 33 34 35 36 37 38 39 40 41 43 44 69 70 72 73 75 76 77 78 79 80 81 82 83 84 85 86 91 0 
-75 22 24 28 29 31 32 33 34 35 36 37 38 39 40 41 43 44 69 70 72 73 74 76 77 78 79 80 81 82 83 84 85 86 91 0 
-76 22 24 28 29 31 32 33 34 35 36 37 38 39 40 41 43 44 69 70 72 73 74 75 77 78 79 80 81 82 83 84 85 86 91 0 
-77 22 24 28 29 31 32 33 34 35 36 37 38 39 40 41 43 44 69 70 72 73 74 75 76 78 79 80 81 82 83 84 85 86 91 0 
-78 22 24 28 29 31 32 33 34 35 36 37 38 39 40 41 43 44 69 70 72 73 74 75 76 77 79 80 81 82 83 84 85 86 91 0 
-79 22 24 28 29 31 32 33 34 35 36 37 38 39 40 41 43 44 69 70 72 73 74 75 76 77 78 80 81 82 83 84 85 86 91 0 
-80 22 24 28 29 31 32 33 34 35 36 37 38 39 40 41 43 44 69 70 72 73 74 75 76 77 78 79 81 82 83 84 85 86 91 0 
-81 22 24 28 29 31 32 33 34 35 36 37 38 39 40 41 43 44 69 70 72 73 74 75 76 77 78 79 80 82 83 84 85 86 91 0 
-82 22 24 28 29 31 32 33 34 35 36 37 38 39 40 41 43 44 69 70 72 73 74 75 76 77 78 79 80 81 83 84 85 86 91 0 
-83 22 24 28 29 31 32 33 34 35 36 37 38 39 40 41 43 44 69 70 72 73 74 75 76 77 78 79 80 81 82 84 85 86 91 0 
-84 22 24 28 29 31 32 33 34 35 36 37 38 39 40 41 43 44 69 70 72 73 74 75 76 77 78 79 80 81 82 83 85 86 91 0 
-85 22 24 28 29 31 32 33 34 35 36 37 38 39 40 41 43 44 69 70 72 73 74 75 76 77 78 79 80 81 82 83 84 86 91 0 
-86 22 24 28 29 31 32 33 34 35 36 37 38 39 40 41 43 44 69 70 72 73 74 75 76 77 78 79 80 81 82 83 84 85 91 0 
-87 1 91 0 
-88 4 -56 91 0 
-89 -90 91 0 
